18 6
98 36 111 73 37 83
2 5 4 5 2 4 2 3 3 2 2 5 3 3 4 2 4 2
26 10 32 15 12 18
8 6 14 12 14 1
2 10 4 2 13 11
11 3 17 15 10 7
13 5 19 17 12 7
11 14 11 10 9 19
5 11 9 7 17 8
9 8 15 13 16 1
2 7 8 6 10 9
14 6 19 17 5 13
16 8 22 20 8 14
6 8 9 8 7 13
11 8 15 13 1 15
14 7 19 17 4 14
10 2 17 14 9 7
11 8 17 15 16 2
2 9 6 4 11 11
7 5 13 11 13 3
12 6 17 15 2 14
